p cnf 69 581
1 2 3 4 0
5 6 7 0
8 9 10 0
11 12 13 14 0
15 16 17 18 0
19 20 21 22 0
23 24 25 26 0
27 28 29 0
30 31 32 0
33 34 35 36 0
37 38 39 40 0
45 46 47 0
48 49 50 0
51 52 53 0
54 55 0
56 57 58 59 0
60 61 62 0
63 64 65 66 0
67 68 69 0
-1 -5 0
-1 -11 0
-1 -15 0
-1 -19 0
-1 -23 0
-1 -27 0
-1 -30 0
-1 -33 0
-1 -37 0
-1 -41 0
-1 -48 0
-1 -51 0
-1 -56 0
-1 -63 0
-1 -67 0
-5 -11 0
-5 -15 0
-5 -19 0
-5 -23 0
-5 -27 0
-5 -30 0
-5 -33 0
-5 -37 0
-5 -41 0
-5 -48 0
-5 -51 0
-5 -56 0
-5 -63 0
-5 -67 0
-11 -15 0
-11 -19 0
-11 -23 0
-11 -27 0
-11 -30 0
-11 -33 0
-11 -37 0
-11 -41 0
-11 -48 0
-11 -51 0
-11 -56 0
-11 -63 0
-11 -67 0
-15 -19 0
-15 -23 0
-15 -27 0
-15 -30 0
-15 -33 0
-15 -37 0
-15 -41 0
-15 -48 0
-15 -51 0
-15 -56 0
-15 -63 0
-15 -67 0
-19 -23 0
-19 -27 0
-19 -30 0
-19 -33 0
-19 -37 0
-19 -41 0
-19 -48 0
-19 -51 0
-19 -56 0
-19 -63 0
-19 -67 0
-23 -27 0
-23 -30 0
-23 -33 0
-23 -37 0
-23 -41 0
-23 -48 0
-23 -51 0
-23 -56 0
-23 -63 0
-23 -67 0
-27 -30 0
-27 -33 0
-27 -37 0
-27 -41 0
-27 -48 0
-27 -51 0
-27 -56 0
-27 -63 0
-27 -67 0
-30 -33 0
-30 -37 0
-30 -41 0
-30 -48 0
-30 -51 0
-30 -56 0
-30 -63 0
-30 -67 0
-33 -37 0
-33 -41 0
-33 -48 0
-33 -51 0
-33 -56 0
-33 -63 0
-33 -67 0
-37 -41 0
-37 -48 0
-37 -51 0
-37 -56 0
-37 -63 0
-37 -67 0
-41 -48 0
-41 -51 0
-41 -56 0
-41 -63 0
-41 -67 0
-48 -51 0
-48 -56 0
-48 -63 0
-48 -67 0
-51 -56 0
-51 -63 0
-51 -67 0
-56 -63 0
-56 -67 0
-63 -67 0
-2 -6 0
-2 -8 0
-2 -12 0
-2 -16 0
-2 -20 0
-2 -24 0
-2 -28 0
-2 -34 0
-2 -38 0
-2 -42 0
-2 -45 0
-2 -49 0
-2 -54 0
-2 -57 0
-2 -60 0
-2 -64 0
-6 -8 0
-6 -12 0
-6 -16 0
-6 -20 0
-6 -24 0
-6 -28 0
-6 -34 0
-6 -38 0
-6 -42 0
-6 -45 0
-6 -49 0
-6 -54 0
-6 -57 0
-6 -60 0
-6 -64 0
-8 -12 0
-8 -16 0
-8 -20 0
-8 -24 0
-8 -28 0
-8 -34 0
-8 -38 0
-8 -42 0
-8 -45 0
-8 -49 0
-8 -54 0
-8 -57 0
-8 -60 0
-8 -64 0
-12 -16 0
-12 -20 0
-12 -24 0
-12 -28 0
-12 -34 0
-12 -38 0
-12 -42 0
-12 -45 0
-12 -49 0
-12 -54 0
-12 -57 0
-12 -60 0
-12 -64 0
-16 -20 0
-16 -24 0
-16 -28 0
-16 -34 0
-16 -38 0
-16 -42 0
-16 -45 0
-16 -49 0
-16 -54 0
-16 -57 0
-16 -60 0
-16 -64 0
-20 -24 0
-20 -28 0
-20 -34 0
-20 -38 0
-20 -42 0
-20 -45 0
-20 -49 0
-20 -54 0
-20 -57 0
-20 -60 0
-20 -64 0
-24 -28 0
-24 -34 0
-24 -38 0
-24 -42 0
-24 -45 0
-24 -49 0
-24 -54 0
-24 -57 0
-24 -60 0
-24 -64 0
-28 -34 0
-28 -38 0
-28 -42 0
-28 -45 0
-28 -49 0
-28 -54 0
-28 -57 0
-28 -60 0
-28 -64 0
-34 -38 0
-34 -42 0
-34 -45 0
-34 -49 0
-34 -54 0
-34 -57 0
-34 -60 0
-34 -64 0
-38 -42 0
-38 -45 0
-38 -49 0
-38 -54 0
-38 -57 0
-38 -60 0
-38 -64 0
-42 -45 0
-42 -49 0
-42 -54 0
-42 -57 0
-42 -60 0
-42 -64 0
-45 -49 0
-45 -54 0
-45 -57 0
-45 -60 0
-45 -64 0
-49 -54 0
-49 -57 0
-49 -60 0
-49 -64 0
-54 -57 0
-54 -60 0
-54 -64 0
-57 -60 0
-57 -64 0
-60 -64 0
-3 -9 0
-3 -13 0
-3 -17 0
-3 -21 0
-3 -25 0
-3 -31 0
-3 -35 0
-3 -39 0
-3 -43 0
-3 -46 0
-3 -50 0
-3 -52 0
-3 -55 0
-3 -58 0
-3 -61 0
-3 -65 0
-3 -68 0
-9 -13 0
-9 -17 0
-9 -21 0
-9 -25 0
-9 -31 0
-9 -35 0
-9 -39 0
-9 -43 0
-9 -46 0
-9 -50 0
-9 -52 0
-9 -55 0
-9 -58 0
-9 -61 0
-9 -65 0
-9 -68 0
-13 -17 0
-13 -21 0
-13 -25 0
-13 -31 0
-13 -35 0
-13 -39 0
-13 -43 0
-13 -46 0
-13 -50 0
-13 -52 0
-13 -55 0
-13 -58 0
-13 -61 0
-13 -65 0
-13 -68 0
-17 -21 0
-17 -25 0
-17 -31 0
-17 -35 0
-17 -39 0
-17 -43 0
-17 -46 0
-17 -50 0
-17 -52 0
-17 -55 0
-17 -58 0
-17 -61 0
-17 -65 0
-17 -68 0
-21 -25 0
-21 -31 0
-21 -35 0
-21 -39 0
-21 -43 0
-21 -46 0
-21 -50 0
-21 -52 0
-21 -55 0
-21 -58 0
-21 -61 0
-21 -65 0
-21 -68 0
-25 -31 0
-25 -35 0
-25 -39 0
-25 -43 0
-25 -46 0
-25 -50 0
-25 -52 0
-25 -55 0
-25 -58 0
-25 -61 0
-25 -65 0
-25 -68 0
-31 -35 0
-31 -39 0
-31 -43 0
-31 -46 0
-31 -50 0
-31 -52 0
-31 -55 0
-31 -58 0
-31 -61 0
-31 -65 0
-31 -68 0
-35 -39 0
-35 -43 0
-35 -46 0
-35 -50 0
-35 -52 0
-35 -55 0
-35 -58 0
-35 -61 0
-35 -65 0
-35 -68 0
-39 -43 0
-39 -46 0
-39 -50 0
-39 -52 0
-39 -55 0
-39 -58 0
-39 -61 0
-39 -65 0
-39 -68 0
-43 -46 0
-43 -50 0
-43 -52 0
-43 -55 0
-43 -58 0
-43 -61 0
-43 -65 0
-43 -68 0
-46 -50 0
-46 -52 0
-46 -55 0
-46 -58 0
-46 -61 0
-46 -65 0
-46 -68 0
-50 -52 0
-50 -55 0
-50 -58 0
-50 -61 0
-50 -65 0
-50 -68 0
-52 -55 0
-52 -58 0
-52 -61 0
-52 -65 0
-52 -68 0
-55 -58 0
-55 -61 0
-55 -65 0
-55 -68 0
-58 -61 0
-58 -65 0
-58 -68 0
-61 -65 0
-61 -68 0
-65 -68 0
-4 -7 0
-4 -10 0
-4 -14 0
-4 -18 0
-4 -22 0
-4 -26 0
-4 -29 0
-4 -32 0
-4 -36 0
-4 -40 0
-4 -44 0
-4 -47 0
-4 -53 0
-4 -59 0
-4 -62 0
-4 -66 0
-4 -69 0
-7 -10 0
-7 -14 0
-7 -18 0
-7 -22 0
-7 -26 0
-7 -29 0
-7 -32 0
-7 -36 0
-7 -40 0
-7 -44 0
-7 -47 0
-7 -53 0
-7 -59 0
-7 -62 0
-7 -66 0
-7 -69 0
-10 -14 0
-10 -18 0
-10 -22 0
-10 -26 0
-10 -29 0
-10 -32 0
-10 -36 0
-10 -40 0
-10 -44 0
-10 -47 0
-10 -53 0
-10 -59 0
-10 -62 0
-10 -66 0
-10 -69 0
-14 -18 0
-14 -22 0
-14 -26 0
-14 -29 0
-14 -32 0
-14 -36 0
-14 -40 0
-14 -44 0
-14 -47 0
-14 -53 0
-14 -59 0
-14 -62 0
-14 -66 0
-14 -69 0
-18 -22 0
-18 -26 0
-18 -29 0
-18 -32 0
-18 -36 0
-18 -40 0
-18 -44 0
-18 -47 0
-18 -53 0
-18 -59 0
-18 -62 0
-18 -66 0
-18 -69 0
-22 -26 0
-22 -29 0
-22 -32 0
-22 -36 0
-22 -40 0
-22 -44 0
-22 -47 0
-22 -53 0
-22 -59 0
-22 -62 0
-22 -66 0
-22 -69 0
-26 -29 0
-26 -32 0
-26 -36 0
-26 -40 0
-26 -44 0
-26 -47 0
-26 -53 0
-26 -59 0
-26 -62 0
-26 -66 0
-26 -69 0
-29 -32 0
-29 -36 0
-29 -40 0
-29 -44 0
-29 -47 0
-29 -53 0
-29 -59 0
-29 -62 0
-29 -66 0
-29 -69 0
-32 -36 0
-32 -40 0
-32 -44 0
-32 -47 0
-32 -53 0
-32 -59 0
-32 -62 0
-32 -66 0
-32 -69 0
-36 -40 0
-36 -44 0
-36 -47 0
-36 -53 0
-36 -59 0
-36 -62 0
-36 -66 0
-36 -69 0
-40 -44 0
-40 -47 0
-40 -53 0
-40 -59 0
-40 -62 0
-40 -66 0
-40 -69 0
-44 -47 0
-44 -53 0
-44 -59 0
-44 -62 0
-44 -66 0
-44 -69 0
-47 -53 0
-47 -59 0
-47 -62 0
-47 -66 0
-47 -69 0
-53 -59 0
-53 -62 0
-53 -66 0
-53 -69 0
-59 -62 0
-59 -66 0
-59 -69 0
-62 -66 0
-62 -69 0
-66 -69 0
